p cnf 27 26
-1 -2 -10 0
-3 -4 -5 -13 0
-4 -5 -6 -14 0
-5 -6 -7 -15 0
-6 -7 -8 -16 0
-7 -8 -9 -17 0
-8 -9 -18 0
-1 -10 -11 -19 0
-10 -19 -20 0
-2 -3 -4 -12 0
-12 -20 -21 -22 0
-4 -12 -13 -14 -22 0
-14 -22 -23 -24 0
-5 -13 -14 -15 -23 0
-17 -25 -26 -27 0
-7 -15 -16 -17 -25 0
-8 -16 -17 -18 -26 0
-9 -17 -18 -27 0
-18 -26 -27 0
-16 -24 -25 -26 0
-13 -21 -22 -23 0
-3 -11 -12 -13 -21 0
-15 -23 -24 -25 0
-1 -2 -3 -11 0
-11 -19 -20 -21 0
-2 -10 -11 -12 -20 0
